;; sequence(s): A110831
;; terms: 31 67 109 157 211 271 337 409 487 571 661 757 859 967 1081 1201 1327 1459 1597 1741
;; small program: 1 + ((1 + 2) * (loop(x + y, 2 + 2, x) * (1 + x)))
;; fast program: 1 + ((1 + 2) * ((1 + x) * ((((2 + 2) * 2) + 2) + x)))
(set-logic UFNIA)
(declare-fun f0 (Int Int) Int)
(declare-fun g0 () Int)
(declare-fun h0 (Int) Int)
(declare-fun u0 (Int Int) Int)
(declare-fun v0 (Int) Int)
(declare-fun small (Int) Int)
(declare-fun fast (Int) Int)
(assert (forall ((x Int) (y Int)) (= (f0 x y) (+ x y))))
(assert (= g0 (+ 2 2)))
(assert (forall ((x Int)) (= (h0 x) x)))
(assert (forall ((x Int) (y Int)) (= (u0 x y) (ite (<= x 0) y (f0 (u0 (- x 1) y) x)))))
(assert (forall ((x Int)) (= (v0 x) (u0 g0 (h0 x)))))
(assert (forall ((x Int)) (= (small x) (+ 1 (* (+ 1 2) (* (v0 x) (+ 1 x)))))))
(assert (forall ((x Int)) (= (fast x) (+ 1 (* (+ 1 2) (* (+ 1 x) (+ (+ (* (+ 2 2) 2) 2) x)))))))
(assert (exists ((c Int)) (and (>= c 0) (not (= (small c) (fast c))))))
(check-sat)
